;test regex /^(TEXT|TEXTTWO|([\+][0-9]{1,3}[ \.\-])?([\(]{1}[0-9]{2,6}[\)])?([0-9 \.\-\/]{3,20})((x|ext|extension)[ ]?[0-9]{1,4})?)$/
(declare-const X String)
(assert (str.in_re X (re.++ (re.++ (str.to_re "/") (re.++ (str.to_re "") (re.union (re.union (re.++ (str.to_re "T") (re.++ (str.to_re "E") (re.++ (str.to_re "X") (str.to_re "T")))) (re.++ (str.to_re "T") (re.++ (str.to_re "E") (re.++ (str.to_re "X") (re.++ (str.to_re "T") (re.++ (str.to_re "T") (re.++ (str.to_re "W") (str.to_re "O")))))))) (re.++ (re.opt (re.++ (str.to_re "+") (re.++ ((_ re.loop 1 3) (re.range "0" "9")) (re.union (str.to_re " ") (re.union (str.to_re ".") (str.to_re "-")))))) (re.++ (re.opt (re.++ ((_ re.loop 1 1) (str.to_re "(")) (re.++ ((_ re.loop 2 6) (re.range "0" "9")) (str.to_re ")")))) (re.++ ((_ re.loop 3 20) (re.union (re.range "0" "9") (re.union (str.to_re " ") (re.union (str.to_re ".") (re.union (str.to_re "-") (str.to_re "/")))))) (re.opt (re.++ (re.union (re.union (str.to_re "x") (re.++ (str.to_re "e") (re.++ (str.to_re "x") (str.to_re "t")))) (re.++ (str.to_re "e") (re.++ (str.to_re "x") (re.++ (str.to_re "t") (re.++ (str.to_re "e") (re.++ (str.to_re "n") (re.++ (str.to_re "s") (re.++ (str.to_re "i") (re.++ (str.to_re "o") (str.to_re "n")))))))))) (re.++ (re.opt (str.to_re " ")) ((_ re.loop 1 4) (re.range "0" "9"))))))))))) (re.++ (str.to_re "") (str.to_re "/")))))
; sanitize danger characters:  < > ' " \ / &
(assert (not (str.in_re X (re.* (re.union (str.to_re "\u{3c}") (str.to_re "\u{3e}") (str.to_re "\u{27}") (str.to_re "\u{22}") (str.to_re "\u{5c}") (str.to_re "\u{2f}") (str.to_re "\u{26}"))))))
(assert (< 20 (str.len X)))
(check-sat)
(get-model)